============================[ Problem Statistics ]=============================|                                                                             ||  Number of variables:          4242                                         ||  Number of clauses:           10387                                         ||  Parse time:                   0.76 s                                       ||                                                                             |============================[ Search Statistics ]==============================| Conflicts |          ORIGINAL         |          LEARNT          | Progress ||           |    Vars  Clauses Literals |    Limit  Clauses Lit/Cl |          |===============================================================================|       100 |    1591     6592  1235273 |     2417      100     53 | 62.501 % ||       250 |    1591     6592  1235273 |     2658      250     75 | 62.495 % |===============================================================================restarts              : 4conflicts             : 418            (361 /sec)decisions             : 779            (0.00 % random) (672 /sec)propagations          : 13682          (11805 /sec)conflict literals     : 34963          (94.51 % deleted)CPU time              : 1.159 sSATISFIABLE